data/results/2026_03_23_13_46_14_set_exp_2_exp_2_n029_c008_g002_max.sol
# Objective value = 33
c_n4n8n13 2
c_n5n8n13n15 4
c_n8n13n27 3
c_n12n13n15 2
c_n16n20n21 3
c_n5n15n17 3
c_n19n22n23 3
c_n20n21n23 3
c_n8n13n15 3
c_n5n13n15 3
c_n5n8n15 2
c_n5n8n13 2
y_n0n1 1
y_n1n2 0
y_n0n2 1
y_n1n3 0
y_n0n3 1
y_n1n4 0
y_n0n4 1
y_n1n5 0
y_n0n5 1
y_n1n6 1
y_n0n6 1
y_n1n7 1
y_n0n7 1
y_n1n8 0
y_n0n8 1
y_n1n9 1
y_n0n9 1
y_n1n10 1
y_n0n10 1
y_n1n11 1
y_n0n11 1
y_n1n12 0
y_n0n12 1
y_n1n13 0
y_n0n13 1
y_n1n14 0
y_n0n14 1
y_n1n15 0
y_n0n15 1
y_n1n16 0
y_n0n16 0
y_n1n17 0
y_n0n17 1
y_n1n18 1
y_n0n18 1
y_n1n19 0
y_n0n19 0
y_n1n20 0
y_n0n20 0
y_n1n21 0
y_n0n21 0
y_n1n22 0
y_n0n22 0
y_n1n23 0
y_n0n23 0
y_n1n24 1
y_n0n24 1
y_n1n25 0
y_n0n25 0
y_n1n26 1
y_n0n26 1
y_n1n27 0
y_n0n27 1
y_n1n28 0
y_n0n28 1
y_n2n3 0
y_n2n4 1
y_n2n5 1
y_n2n6 1
y_n2n7 1
y_n2n8 1
y_n2n9 1
y_n2n10 1
y_n2n11 1
y_n2n12 1
y_n2n13 1
y_n2n14 1
y_n2n15 1
y_n2n16 0
y_n2n17 1
y_n2n18 1
y_n2n19 0
y_n2n20 0
y_n2n21 0
y_n2n22 0
y_n2n23 0
y_n2n24 1
y_n2n25 0
y_n2n26 1
y_n2n27 1
y_n2n28 0
y_n3n4 1
y_n3n5 1
y_n3n6 1
y_n3n7 1
y_n3n8 1
y_n3n9 1
y_n3n10 1
y_n3n11 1
y_n3n12 1
y_n3n13 1
y_n3n14 1
y_n3n15 1
y_n3n16 0
y_n3n17 1
y_n3n18 1
y_n3n19 0
y_n3n20 0
y_n3n21 0
y_n3n22 0
y_n3n23 0
y_n3n24 1
y_n3n25 0
y_n3n26 1
y_n3n27 1
y_n3n28 0
y_n4n5 0
y_n4n6 1
y_n4n7 1
y_n4n8 0
y_n4n9 1
y_n4n10 1
y_n4n11 1
y_n4n12 0
y_n4n13 0
y_n4n14 0
y_n4n15 0
y_n4n16 0
y_n4n17 0
y_n4n18 1
y_n4n19 0
y_n4n20 0
y_n4n21 0
y_n4n22 0
y_n4n23 0
y_n4n24 1
y_n4n25 0
y_n4n26 1
y_n4n27 0
y_n4n28 0
y_n5n6 1
y_n5n7 1
y_n5n8 1
y_n5n9 1
y_n5n10 1
y_n5n11 1
y_n5n12 1
y_n5n13 1
y_n5n14 0
y_n5n15 1
y_n5n16 0
y_n5n17 0
y_n5n18 1
y_n5n19 0
y_n5n20 0
y_n5n21 0
y_n5n22 0
y_n5n23 0
y_n5n24 1
y_n5n25 0
y_n5n26 1
y_n5n27 1
y_n5n28 0
y_n6n7 0
y_n6n8 0
y_n6n9 1
y_n6n10 0
y_n6n11 1
y_n6n12 0
y_n6n13 0
y_n6n14 0
y_n6n15 0
y_n6n16 0
y_n6n17 0
y_n6n18 0
y_n6n19 0
y_n6n20 0
y_n6n21 0
y_n6n22 0
y_n6n23 0
y_n6n24 1
y_n6n25 0
y_n6n26 1
y_n6n27 0
y_n6n28 0
y_n7n8 0
y_n7n9 1
y_n7n10 1
y_n7n11 1
y_n7n12 0
y_n7n13 0
y_n7n14 0
y_n7n15 0
y_n7n16 0
y_n7n17 0
y_n7n18 0
y_n7n19 0
y_n7n20 0
y_n7n21 0
y_n7n22 0
y_n7n23 0
y_n7n24 1
y_n7n25 0
y_n7n26 1
y_n7n27 0
y_n7n28 0
y_n8n9 1
y_n8n10 1
y_n8n11 1
y_n8n12 1
y_n8n13 0
y_n8n14 0
y_n8n15 0
y_n8n16 0
y_n8n17 0
y_n8n18 1
y_n8n19 0
y_n8n20 0
y_n8n21 0
y_n8n22 0
y_n8n23 0
y_n8n24 1
y_n8n25 0
y_n8n26 1
y_n8n27 1
y_n8n28 0
y_n9n10 0
y_n9n11 0
y_n9n12 0
y_n9n13 0
y_n9n14 0
y_n9n15 0
y_n9n16 0
y_n9n17 0
y_n9n18 0
y_n9n19 0
y_n9n20 0
y_n9n21 0
y_n9n22 0
y_n9n23 0
y_n9n24 0
y_n9n25 0
y_n9n26 0
y_n9n27 0
y_n9n28 0
y_n10n11 1
y_n10n12 0
y_n10n13 0
y_n10n14 0
y_n10n15 0
y_n10n16 0
y_n10n17 0
y_n10n18 0
y_n10n19 0
y_n10n20 0
y_n10n21 0
y_n10n22 0
y_n10n23 0
y_n10n24 1
y_n10n25 0
y_n10n26 1
y_n10n27 0
y_n10n28 0
y_n11n12 0
y_n11n13 0
y_n11n14 0
y_n11n15 0
y_n11n16 0
y_n11n17 0
y_n11n18 0
y_n11n19 0
y_n11n20 0
y_n11n21 0
y_n11n22 0
y_n11n23 0
y_n11n24 0
y_n11n25 0
y_n11n26 0
y_n11n27 0
y_n11n28 0
y_n12n13 0
y_n12n14 0
y_n12n15 0
y_n12n16 0
y_n12n17 0
y_n12n18 1
y_n12n19 0
y_n12n20 0
y_n12n21 0
y_n12n22 0
y_n12n23 0
y_n12n24 1
y_n12n25 0
y_n12n26 1
y_n12n27 0
y_n12n28 0
y_n13n14 0
y_n13n15 0
y_n13n16 0
y_n13n17 0
y_n13n18 1
y_n13n19 0
y_n13n20 0
y_n13n21 0
y_n13n22 0
y_n13n23 0
y_n13n24 1
y_n13n25 0
y_n13n26 1
y_n13n27 1
y_n13n28 0
y_n14n15 1
y_n14n16 0
y_n14n17 1
y_n14n18 1
y_n14n19 0
y_n14n20 0
y_n14n21 0
y_n14n22 0
y_n14n23 0
y_n14n24 1
y_n14n25 0
y_n14n26 1
y_n14n27 1
y_n14n28 0
y_n15n16 0
y_n15n17 0
y_n15n18 1
y_n15n19 0
y_n15n20 0
y_n15n21 0
y_n15n22 0
y_n15n23 0
y_n15n24 1
y_n15n25 0
y_n15n26 1
y_n15n27 1
y_n15n28 0
y_n16n17 1
y_n16n18 1
y_n16n19 1
y_n16n20 1
y_n16n21 1
y_n16n22 1
y_n16n23 1
y_n16n24 1
y_n16n25 1
y_n16n26 1
y_n16n27 1
y_n16n28 1
y_n17n18 1
y_n17n19 0
y_n17n20 0
y_n17n21 0
y_n17n22 0
y_n17n23 0
y_n17n24 1
y_n17n25 0
y_n17n26 1
y_n17n27 1
y_n17n28 0
y_n18n19 0
y_n18n20 0
y_n18n21 0
y_n18n22 0
y_n18n23 0
y_n18n24 1
y_n18n25 0
y_n18n26 1
y_n18n27 0
y_n18n28 0
y_n19n20 0
y_n19n21 0
y_n19n22 1
y_n19n23 0
y_n19n24 1
y_n19n25 1
y_n19n26 1
y_n19n27 1
y_n19n28 1
y_n20n21 0
y_n20n22 1
y_n20n23 1
y_n20n24 1
y_n20n25 1
y_n20n26 1
y_n20n27 1
y_n20n28 1
y_n21n22 1
y_n21n23 1
y_n21n24 1
y_n21n25 1
y_n21n26 1
y_n21n27 1
y_n21n28 1
y_n22n23 0
y_n22n24 1
y_n22n25 1
y_n22n26 1
y_n22n27 1
y_n22n28 1
y_n23n24 1
y_n23n25 1
y_n23n26 1
y_n23n27 1
y_n23n28 1
y_n24n25 0
y_n24n26 0
y_n24n27 0
y_n24n28 0
y_n25n26 1
y_n25n27 1
y_n25n28 1
y_n26n27 0
y_n26n28 0
y_n27n28 0
pos_n0 7
pos_n1 20
pos_n2 10
pos_n3 9
pos_n4 19
pos_n5 13
pos_n6 24
pos_n7 22
pos_n8 16
pos_n9 28
pos_n10 23
pos_n11 27
pos_n12 18
pos_n13 15
pos_n14 11
pos_n15 14
pos_n16 0
pos_n17 12
pos_n18 21
pos_n19 4
pos_n20 2
pos_n21 1
pos_n22 5
pos_n23 3
pos_n24 26
pos_n25 6
pos_n26 25
pos_n27 17
pos_n28 8
z_n10n18 0
z_n10n15 0
z_n10n19 0
z_n10n26 0
z_n15n18 0
z_n18n19 0
z_n18n26 0
z_n15n19 0
z_n15n26 0
z_n19n26 0
z_n4n16 0
z_n3n16 0
z_n2n16 0
z_n3n4 0
z_n2n4 0
z_n2n3 0
z_n5n7 0
z_n5n12 0
z_n1n5 0
z_n7n12 0
z_n1n7 0
z_n1n12 0
z_n26n27 0
z_n1n26 0
z_n17n26 0
z_n1n27 0
z_n17n27 0
z_n1n17 0
z_n1n8 0
z_n1n13 0
z_n1n19 0
z_n1n25 0
z_n8n13 1
z_n8n17 0
z_n8n19 0
z_n8n25 0
z_n13n17 0
z_n13n19 0
z_n13n25 0
z_n17n19 0
z_n17n25 0
z_n19n25 0
z_n2n8 0
z_n8n15 0
z_n8n20 0
z_n2n13 0
z_n2n15 0
z_n2n17 0
z_n2n20 0
z_n13n15 1
z_n13n20 0
z_n15n17 0
z_n15n20 0
z_n17n20 0
z_n9n24 0
z_n9n12 0
z_n9n27 0
z_n9n22 0
z_n12n24 0
z_n24n27 0
z_n22n24 0
z_n12n27 0
z_n12n22 0
z_n22n27 0
z_n2n11 0
z_n2n14 0
z_n11n13 0
z_n11n14 0
z_n11n16 0
z_n13n14 0
z_n13n16 0
z_n14n16 0
z_n4n5 0
z_n4n13 0
z_n4n14 0
z_n4n15 0
z_n4n26 0
z_n4n27 0
z_n5n13 0
z_n5n14 0
z_n5n15 1
z_n5n26 0
z_n5n27 0
z_n13n26 0
z_n13n27 0
z_n14n15 0
z_n14n26 0
z_n14n27 0
z_n15n27 0
z_n6n25 0
z_n11n25 0
z_n16n25 0
z_n23n25 0
z_n6n11 0
z_n6n16 0
z_n6n23 0
z_n11n23 0
z_n16n23 0
z_n0n13 0
z_n13n23 0
z_n13n28 0
z_n0n23 0
z_n0n28 0
z_n23n28 0
z_n7n26 0
z_n7n9 0
z_n7n28 0
z_n9n26 0
z_n26n28 0
z_n9n28 0
z_n6n18 0
z_n13n18 0
z_n18n23 0
z_n2n18 0
z_n6n13 0
z_n6n15 0
z_n2n6 0
z_n15n23 0
z_n2n23 0
z_n10n24 0
z_n4n24 0
z_n5n24 0
z_n7n24 0
z_n8n24 0
z_n15n24 0
z_n4n10 0
z_n5n10 0
z_n7n10 0
z_n8n10 0
z_n10n12 0
z_n10n27 0
z_n4n7 0
z_n4n8 0
z_n4n12 0
z_n5n8 0
z_n7n8 0
z_n7n15 0
z_n7n27 0
z_n8n12 0
z_n8n27 1
z_n12n15 0
z_n7n19 0
z_n19n21 0
z_n19n24 0
z_n7n21 0
z_n7n18 0
z_n8n21 0
z_n8n18 0
z_n21n24 0
z_n18n21 0
z_n18n24 0
z_n17n28 0
z_n5n28 0
z_n8n28 0
z_n12n28 0
z_n0n17 0
z_n5n17 1
z_n12n17 0
z_n0n5 0
z_n0n8 0
z_n0n12 0
z_n12n13 0
z_n1n20 0
z_n7n20 0
z_n9n20 0
z_n18n20 0
z_n20n21 1
z_n1n9 0
z_n1n18 0
z_n1n21 0
z_n9n18 0
z_n9n21 0
z_n3n15 0
z_n15n22 0
z_n3n5 0
z_n3n22 0
z_n4n22 0
z_n5n22 0
z_n0n16 0
z_n0n14 0
z_n12n16 0
z_n12n14 0
z_n14n22 0
z_n14n23 0
z_n0n22 0
z_n22n23 0
z_n0n4 0
z_n4n23 0
z_n16n21 1
z_n5n21 0
z_n21n23 0
z_n21n25 0
z_n5n16 0
z_n16n24 0
z_n5n23 0
z_n5n25 0
z_n23n24 0
z_n24n25 0
z_n20n23 1
z_n14n20 0
z_n16n20 0
z_n19n23 1
z_n6n19 0
z_n17n23 0
z_n6n17 0
z_n21n22 0
z_n10n22 0
z_n19n22 1
z_n20n22 0
z_n10n21 0
z_n12n21 0
z_n9n10 0
z_n9n19 0
z_n10n20 0
z_n12n19 0
z_n12n20 0
z_n19n20 0
z_n6n20 0
z_n6n26 0
z_n6n14 0
z_n20n26 0
z_n4n9 0
z_n4n20 0
z_n3n11 0
z_n0n11 0
z_n8n11 0
z_n11n24 0
z_n0n3 0
z_n3n8 0
z_n3n24 0
z_n0n24 0
z_n3n6 0
z_n3n13 0
z_n6n8 0
z_n11n15 0
z_n10n11 0
