logs/2026_03_23_13_46_14_set_exp_2_exp_2_n029_c008_g002_max.log
[2026-03-23T13:46:14.597Z] Pipeline "set_exp_2_exp_2_n029_c008_g002" → 2026_03_23_13_46_14_set_exp_2_exp_2_n029_c008_g002_max.sol
Set parameter WLSAccessID
Set parameter WLSSecret
Set parameter LicenseID to value 2792458
Set parameter LogFile to value "gurobi.log"
Using license file /root/gurobi.lic
Academic license 2792458 - for non-commercial use only - registered to an___@studenti.unipg.it

Gurobi Optimizer version 13.0.1 build v13.0.1rc0 (linux64 - "Ubuntu 24.04.4 LTS")
Copyright (c) 2026, Gurobi Optimization, LLC

Warning: Duplicate section found (read 'binary') - Is a variable name equal to an LP file format keyword?
Warning: Duplicate section found (read 'binary') - Is a variable name equal to an LP file format keyword?
Warning: Duplicate section found (read 'binary') - Is a variable name equal to an LP file format keyword?
Warning: Duplicate section found (read 'binary') - Is a variable name equal to an LP file format keyword?
Warning: Duplicate section found (read 'binary') - Is a variable name equal to an LP file format keyword?
Warning: Duplicate section found (read 'binary') - Is a variable name equal to an LP file format keyword?
Warning: Duplicate section found (read 'binary') - Is a variable name equal to an LP file format keyword?
Warning: Duplicate section found (read 'binary') - Is a variable name equal to an LP file format keyword?
Warning: Duplicate section found (read 'binary') - Is a variable name equal to an LP file format keyword?
Warning: Duplicate section found (read 'binary') - Is a variable name equal to an LP file format keyword?
Warning: Further warnings of this type will be omitted.
Read LP format model from file /root/bgw/data/uploads/2026_03_23_13_46_14_set_exp_2_exp_2_n029_c008_g002_max.lp
Reading time = 0.01 seconds
: 8665 rows, 683 columns, 25448 nonzeros

Using Gurobi shared library /opt/gurobi1301/linux64/lib/libgurobi.so.13.0.1

CPU model: AMD EPYC-Genoa Processor, instruction set [SSE2|AVX|AVX2|AVX512]
Thread count: 16 physical cores, 16 logical processors, using up to 16 threads

Academic license 2792458 - for non-commercial use only - registered to an___@studenti.unipg.it
Optimize a model with 8665 rows, 683 columns and 25448 nonzeros (Max)
Model fingerprint: 0xc7e9b4a0
Model has 12 linear objective coefficients
Variable types: 41 continuous, 642 integer (642 binary)
Coefficient statistics:
  Matrix range     [1e+00, 3e+01]
  Objective range  [1e+00, 1e+00]
  Bounds range     [1e+00, 1e+00]
  RHS range        [1e+00, 3e+01]

Found heuristic solution: objective 12.0000000
Presolve removed 1299 rows and 241 columns
Presolve time: 0.03s
Presolved: 7366 rows, 442 columns, 22462 nonzeros
Variable types: 0 continuous, 442 integer (428 binary)
Found heuristic solution: objective 16.0000000

Root relaxation: objective 5.100000e+01, 416 iterations, 0.03 seconds (0.04 work units)

    Nodes    |    Current Node    |     Objective Bounds      |     Work
 Expl Unexpl |  Obj  Depth IntInf | Incumbent    BestBd   Gap | It/Node Time

     0     0   51.00000    0   58   16.00000   51.00000   219%     -    0s
H    0     0                      23.0000000   51.00000   122%     -    0s
H    0     0                      25.0000000   51.00000   104%     -    0s
H    0     0                      26.0000000   51.00000  96.2%     -    0s
H    0     0                      27.0000000   51.00000  88.9%     -    0s
H    0     0                      29.0000000   51.00000  75.9%     -    0s
     0     0   51.00000    0  102   29.00000   51.00000  75.9%     -    0s
H    0     0                      30.0000000   51.00000  70.0%     -    0s
H    0     0                      31.0000000   51.00000  64.5%     -    0s
H    0     0                      32.0000000   51.00000  59.4%     -    0s
     0     0   51.00000    0   91   32.00000   51.00000  59.4%     -    0s
     0     0   51.00000    0   48   32.00000   51.00000  59.4%     -    0s
H    0     0                      33.0000000   51.00000  54.5%     -    0s
     0     0   51.00000    0   50   33.00000   51.00000  54.5%     -    0s
     0     0   51.00000    0   41   33.00000   51.00000  54.5%     -    0s
     0     0   51.00000    0   41   33.00000   51.00000  54.5%     -    0s
     0     0   51.00000    0   53   33.00000   51.00000  54.5%     -    0s
     0     0   51.00000    0   50   33.00000   51.00000  54.5%     -    0s
     0     0   51.00000    0   45   33.00000   51.00000  54.5%     -    0s
     0     0   51.00000    0   45   33.00000   51.00000  54.5%     -    0s
     0     0   51.00000    0   44   33.00000   51.00000  54.5%     -    0s
     0     0   51.00000    0   38   33.00000   51.00000  54.5%     -    0s
     0     0   51.00000    0   38   33.00000   51.00000  54.5%     -    0s
     0     0   51.00000    0   39   33.00000   51.00000  54.5%     -    0s
     0     0   51.00000    0   39   33.00000   51.00000  54.5%     -    0s
     0     0   51.00000    0   39   33.00000   51.00000  54.5%     -    0s
     0     0   51.00000    0   52   33.00000   51.00000  54.5%     -    0s
     0     0   51.00000    0   46   33.00000   51.00000  54.5%     -    0s
     0     0   51.00000    0   46   33.00000   51.00000  54.5%     -    0s
     0     0   51.00000    0   46   33.00000   51.00000  54.5%     -    1s
     0     2   51.00000    0   46   33.00000   51.00000  54.5%     -    1s
  1155   470 infeasible   26        33.00000   49.91111  51.2%   189    5s
  4833   951 infeasible   22        33.00000   42.38889  28.5%   213   10s
  7888   661 infeasible   17        33.00000   37.29012  13.0%   238   15s

Cutting planes:
  Cover: 80
  StrongCG: 1
  Inf proof: 111

Explored 10418 nodes (2392461 simplex iterations) in 17.83 seconds (35.33 work units)
Thread count was 16 (of 16 available processors)

Solution count 10: 33 32 31 ... 16

Optimal solution found (tolerance 1.00e-04)
Best objective 3.300000000000e+01, best bound 3.300000000000e+01, gap 0.0000%

Wrote result file '/root/bgw/data/results/2026_03_23_13_46_14_set_exp_2_exp_2_n029_c008_g002_max.sol'

